p cnf 258 545               
-8 -7 -19 0
19 -21 0
7 8 -20 0
20 -21 0
21 -37 0
-10 -9 -22 0
22 -24 0
9 10 -23 0
23 -24 0
24 -37 0
-12 -11 -25 0
25 -27 0
11 12 -26 0
26 -27 0
27 -37 0
-14 -13 -28 0
28 -30 0
13 14 -29 0
29 -30 0
30 -37 0
-16 -15 -31 0
31 -33 0
15 16 -32 0
32 -33 0
33 -37 0
-18 -17 -34 0
34 -36 0
17 18 -35 0
35 -36 0
36 -37 0
37 -218 0
11 60 0
-15 60 0
-11 15 -60 0
12 61 0
-16 61 0
-12 16 -61 0
13 62 0
-17 62 0
-13 17 -62 0
14 63 0
-18 63 0
-14 18 -63 0
-60 -61 -62 -63 64 0
15 65 0
-11 65 0
16 66 0
-12 66 0
17 67 0
-13 67 0
18 68 0
-14 68 0
-65 -66 -67 -68 69 0
-64 -69 70 0
-70 -71 0
7 49 0
-15 49 0
8 50 0
-16 50 0
9 51 0
-17 51 0
10 52 0
-18 52 0
-49 -50 -51 -52 53 0
15 54 0
-7 54 0
16 55 0
-8 55 0
17 56 0
-9 56 0
18 57 0
-10 57 0
-54 -55 -56 -57 58 0
-53 -58 59 0
-59 -71 0
7 38 0
-11 38 0
-7 11 -38 0
8 39 0
-12 39 0
-8 12 -39 0
9 40 0
-13 40 0
-9 13 -40 0
10 41 0
-14 41 0
-10 14 -41 0
-38 -39 -40 -41 42 0
11 43 0
-7 43 0
12 44 0
-8 44 0
13 45 0
-9 45 0
14 46 0
-10 46 0
-43 -44 -45 -46 47 0
-42 -47 48 0
-48 -71 0
71 -218 0
-7 -72 0
8 -72 0
7 -8 72 0
-1 72 -73 0
1 -72 -73 0
72 -72 -73 0
73 -84 0
-9 -74 0
10 -74 0
9 -10 74 0
-2 74 -75 0
2 -74 -75 0
74 -74 -75 0
75 -84 0
-11 -76 0
12 -76 0
11 -12 76 0
-3 76 -77 0
3 -76 -77 0
76 -76 -77 0
77 -84 0
-13 -78 0
14 -78 0
13 -14 78 0
-4 78 -79 0
4 -78 -79 0
78 -78 -79 0
79 -84 0
-15 -80 0
16 -80 0
15 -16 80 0
-5 80 -81 0
5 -80 -81 0
80 -80 -81 0
81 -84 0
-17 -82 0
18 -82 0
17 -18 82 0
-6 82 -83 0
6 -82 -83 0
82 -82 -83 0
83 -84 0
84 -218 0
-10 -85 0
-8 -85 0
10 8 85 0
85 -87 0
7 -86 0
9 -86 0
-7 -9 86 0
86 -87 0
-85 -86 87 0
-87 94 0
-14 -88 0
-12 -88 0
14 12 88 0
88 -90 0
11 -89 0
13 -89 0
-11 -13 89 0
89 -90 0
-88 -89 90 0
-90 94 0
-18 -91 0
-16 -91 0
18 16 91 0
91 -93 0
15 -92 0
17 -92 0
-15 -17 92 0
92 -93 0
-91 -92 93 0
-93 94 0
87 90 93 -94 0
94 -109 0
2 -96 0
87 -96 0
-2 -87 96 0
-96 102 0
4 -98 0
90 -98 0
-4 -90 98 0
-98 102 0
6 -100 0
93 -100 0
-6 -93 100 0
-100 102 0
96 98 100 -102 0
102 -109 0
-94 -102 109 0
-102 -108 0
94 -108 0
102 -94 108 0
-109 -108 -110 0
110 -112 0
108 109 -111 0
111 -112 0
112 113 0
94 -104 0
1 -95 0
87 -95 0
-1 -87 95 0
-95 101 0
3 -97 0
90 -97 0
-3 -90 97 0
-97 101 0
5 -99 0
93 -99 0
-5 -93 99 0
-99 101 0
95 97 99 -101 0
101 -104 0
-94 -101 104 0
-101 -103 0
94 -103 0
101 -94 103 0
-104 -103 -105 0
105 -107 0
103 104 -106 0
106 -107 0
107 113 0
-113 -201 0
109 -201 0
-9 -114 0
-8 -114 0
9 8 114 0
114 -116 0
7 -115 0
10 -115 0
-7 -10 115 0
115 -116 0
-114 -115 116 0
-116 123 0
-13 -117 0
-12 -117 0
13 12 117 0
117 -119 0
11 -118 0
14 -118 0
-11 -14 118 0
118 -119 0
-117 -118 119 0
-119 123 0
-17 -120 0
-16 -120 0
17 16 120 0
120 -122 0
15 -121 0
18 -121 0
-15 -18 121 0
121 -122 0
-120 -121 122 0
-122 123 0
116 119 122 -123 0
123 -138 0
2 -125 0
116 -125 0
-2 -116 125 0
-125 131 0
4 -127 0
119 -127 0
-4 -119 127 0
-127 131 0
6 -129 0
122 -129 0
-6 -122 129 0
-129 131 0
125 127 129 -131 0
131 -138 0
-123 -131 138 0
-131 -137 0
123 -137 0
131 -123 137 0
-138 -137 -139 0
139 -141 0
137 138 -140 0
140 -141 0
141 142 0
123 -133 0
1 -124 0
116 -124 0
-1 -116 124 0
-124 130 0
3 -126 0
119 -126 0
-3 -119 126 0
-126 130 0
5 -128 0
122 -128 0
-5 -122 128 0
-128 130 0
124 126 128 -130 0
130 -133 0
-123 -130 133 0
-130 -132 0
123 -132 0
130 -123 132 0
-133 -132 -134 0
134 -136 0
132 133 -135 0
135 -136 0
136 142 0
-142 -204 0
137 -204 0
-10 -143 0
-7 -143 0
10 7 143 0
143 -145 0
8 -144 0
9 -144 0
-8 -9 144 0
144 -145 0
-143 -144 145 0
-145 152 0
-14 -146 0
-11 -146 0
14 11 146 0
146 -148 0
12 -147 0
13 -147 0
-12 -13 147 0
147 -148 0
-146 -147 148 0
-148 152 0
-18 -149 0
-15 -149 0
18 15 149 0
149 -151 0
16 -150 0
17 -150 0
-16 -17 150 0
150 -151 0
-149 -150 151 0
-151 152 0
145 148 151 -152 0
152 -167 0
2 -154 0
145 -154 0
-2 -145 154 0
-154 160 0
4 -156 0
148 -156 0
-4 -148 156 0
-156 160 0
6 -158 0
151 -158 0
-6 -151 158 0
-158 160 0
154 156 158 -160 0
160 -167 0
-152 -160 167 0
-160 -166 0
152 -166 0
160 -152 166 0
-167 -166 -168 0
168 -170 0
166 167 -169 0
169 -170 0
170 171 0
152 -162 0
1 -153 0
145 -153 0
-1 -145 153 0
-153 159 0
3 -155 0
148 -155 0
-3 -148 155 0
-155 159 0
5 -157 0
151 -157 0
-5 -151 157 0
-157 159 0
153 155 157 -159 0
159 -162 0
-152 -159 162 0
-159 -161 0
152 -161 0
159 -152 161 0
-162 -161 -163 0
163 -165 0
161 162 -164 0
164 -165 0
165 171 0
-171 -205 0
167 -205 0
-9 -172 0
-7 -172 0
9 7 172 0
172 -174 0
8 -173 0
10 -173 0
-8 -10 173 0
173 -174 0
-172 -173 174 0
-174 181 0
-13 -175 0
-11 -175 0
13 11 175 0
175 -177 0
12 -176 0
14 -176 0
-12 -14 176 0
176 -177 0
-175 -176 177 0
-177 181 0
-17 -178 0
-15 -178 0
17 15 178 0
178 -180 0
16 -179 0
18 -179 0
-16 -18 179 0
179 -180 0
-178 -179 180 0
-180 181 0
174 177 180 -181 0
181 -196 0
2 -183 0
174 -183 0
-2 -174 183 0
-183 189 0
4 -185 0
177 -185 0
-4 -177 185 0
-185 189 0
6 -187 0
180 -187 0
-6 -180 187 0
-187 189 0
183 185 187 -189 0
189 -196 0
-181 -189 196 0
-189 -195 0
181 -195 0
189 -181 195 0
-196 -195 -197 0
197 -199 0
195 196 -198 0
198 -199 0
199 200 0
181 -191 0
1 -182 0
174 -182 0
-1 -174 182 0
-182 188 0
3 -184 0
177 -184 0
-3 -177 184 0
-184 188 0
5 -186 0
180 -186 0
-5 -180 186 0
-186 188 0
182 184 186 -188 0
188 -191 0
-181 -188 191 0
-188 -190 0
181 -190 0
188 -181 190 0
-191 -190 -192 0
192 -194 0
190 191 -193 0
193 -194 0
194 200 0
-200 -208 0
195 -208 0
-113 -209 0
104 -209 0
-142 -211 0
133 -211 0
-171 -214 0
161 -214 0
-200 -216 0
190 -216 0
201 204 205 208 209 211 214 216 -217 0
217 -218 0
-1 3 -219 0
219 -237 0
-1 -3 220 0
1 3 220 0
-3 3 220 0
-2 4 -221 0
-220 221 -222 0
222 -237 0
-2 -4 223 0
2 4 223 0
-4 4 223 0
-220 -223 224 0
-224 38 -225 0
225 -237 0
-7 -11 226 0
7 11 226 0
-11 11 226 0
-224 -226 227 0
-227 39 -228 0
228 -237 0
-8 -12 229 0
8 12 229 0
-12 12 229 0
-227 -229 230 0
-230 40 -231 0
231 -237 0
-9 -13 232 0
9 13 232 0
-13 13 232 0
-230 -232 233 0
-233 41 -234 0
234 -237 0
237 -257 0
-3 5 -238 0
238 -256 0
-3 -5 239 0
3 5 239 0
-5 5 239 0
-4 6 -240 0
-239 240 -241 0
241 -256 0
-4 -6 242 0
4 6 242 0
-6 6 242 0
-239 -242 243 0
-243 60 -244 0
244 -256 0
-11 -15 245 0
11 15 245 0
-15 15 245 0
-243 -245 246 0
-246 61 -247 0
247 -256 0
-12 -16 248 0
12 16 248 0
-16 16 248 0
-246 -248 249 0
-249 62 -250 0
250 -256 0
-13 -17 251 0
13 17 251 0
-17 17 251 0
-249 -251 252 0
-252 63 -253 0
253 -256 0
256 -257 0
218 0
257 0
